c File: instances/36_0.10_2.col
c
c Description: Random graph of size 36 vertices and P(0.1) of edges between any two vertices.
p col 36 630
e 1 12
e 1 17
e 1 22
e 1 24
e 1 34
e 2 13
e 3 13
e 3 28
e 3 31
e 4 6
e 4 18
e 4 34
e 5 7
e 5 9
e 5 15
e 5 17
e 5 26
e 5 28
e 6 13
e 6 14
e 6 35
e 7 21
e 8 24
e 8 27
e 8 34
e 10 30
e 10 34
e 12 27
e 12 33
e 13 19
e 13 21
e 13 31
e 13 33
e 14 17
e 15 17
e 15 20
e 15 24
e 15 26
e 15 36
e 16 34
e 17 18
e 17 27
e 18 26
e 18 29
e 19 35
e 19 36
e 20 22
e 20 34
e 21 23
e 22 24
e 22 28
e 22 29
e 22 34
e 24 28
e 25 28
e 25 32
e 29 34
e 30 31
e 30 34